(set-info :source |printed by MathSAT|)
(declare-fun |!{$(in_main#0)<N>}| () Int)
(declare-fun |!{$(in_main#0)<N>}.next| () Int)
(declare-fun |!{$(in_main#0)<a>}| () Int)
(declare-fun |!{$(in_main#0)<a>}.next| () Int)
(declare-fun |!{$(in_main#0)<i>}| () Int)
(declare-fun |!{$(in_main#0)<i>}.next| () Int)
(declare-fun |!{$(in_main#0)<x>}| () Int)
(declare-fun |!{$(in_main#0)<x>}.next| () Int)
(declare-fun |!{$(in_main#0)<a1.1>}| () (Array Int Int))
(declare-fun |!{$(in_main#0)<a1.1>}.next| () (Array Int Int))
(declare-fun |!{$(in_main#0)<a7.2>}| () (Array Int Int))
(declare-fun |!{$(in_main#0)<a7.2>}.next| () (Array Int Int))
(declare-fun |!{$(in_main#0)<a2.3>}| () (Array Int Int))
(declare-fun |!{$(in_main#0)<a2.3>}.next| () (Array Int Int))
(declare-fun |!{$(in_main#0)<a3.4>}| () (Array Int Int))
(declare-fun |!{$(in_main#0)<a3.4>}.next| () (Array Int Int))
(declare-fun |!{$(in_main#0)<a4.5>}| () (Array Int Int))
(declare-fun |!{$(in_main#0)<a4.5>}.next| () (Array Int Int))
(declare-fun |!{$(in_main#0)<a5.6>}| () (Array Int Int))
(declare-fun |!{$(in_main#0)<a5.6>}.next| () (Array Int Int))
(declare-fun |!{$(in_main#0)<a6.7>}| () (Array Int Int))
(declare-fun |!{$(in_main#0)<a6.7>}.next| () (Array Int Int))
(declare-fun |!{$(in_main#0)<a8.8>}| () (Array Int Int))
(declare-fun |!{$(in_main#0)<a8.8>}.next| () (Array Int Int))
(declare-fun |!{$(in_main#0)<$(in___VERIFIER_nondet_int#0)<h#<__VERIFIER_nondet_int.return>>>}| () Int)
(declare-fun |!{$(in_main#0)<$(in___VERIFIER_nondet_int#1)<h#<__VERIFIER_nondet_int.return>>>}| () Int)
(declare-fun |!{$(in_main#0)<$(in___VERIFIER_nondet_int#2)<h#<__VERIFIER_nondet_int.return>>>}| () Int)
(declare-fun !pc () Int)
(declare-fun !pc.next () Int)
(declare-fun |%{$(in_main#0)<i>}#1| () Int)
(declare-fun |%{$(in_main#0)<x>}#1| () Int)
(declare-fun |%{$(in_main#0)<a1.1>}#1| () (Array Int Int))
(declare-fun |%{$(in_main#0)<a7.2>}#1| () (Array Int Int))
(declare-fun |%{$(in_main#0)<a2.3>}#1| () (Array Int Int))
(declare-fun |%{$(in_main#0)<a3.4>}#1| () (Array Int Int))
(declare-fun |%{$(in_main#0)<a4.5>}#1| () (Array Int Int))
(declare-fun |%{$(in_main#0)<a5.6>}#1| () (Array Int Int))
(declare-fun |%{$(in_main#0)<a6.7>}#1| () (Array Int Int))
(declare-fun |%{$(in_main#0)<a8.8>}#1| () (Array Int Int))
(define-fun .def_55 () Int (! !pc :next !pc.next))
(define-fun .def_58 () Bool (! (= .def_55 2) :init true))
(define-fun .def_360 () Bool (= .def_55 41))
(define-fun .def_330 () Bool (= !pc.next 70))
(define-fun .def_363 () Bool (and .def_330 .def_360))
(define-fun .def_10 () Int (! |!{$(in_main#0)<a>}| :next |!{$(in_main#0)<a>}.next|))
(define-fun .def_8 () Int (! |!{$(in_main#0)<N>}| :next |!{$(in_main#0)<N>}.next|))
(define-fun .def_337 () Bool (<= .def_8 .def_10))
(define-fun .def_231 () Bool (= |!{$(in_main#0)<i>}.next| 0))
(define-fun .def_117 () Bool (= .def_10 |!{$(in_main#0)<a>}.next|))
(define-fun .def_115 () Bool (= .def_8 |!{$(in_main#0)<N>}.next|))
(define-fun .def_140 () Bool (and .def_115 .def_117))
(define-fun .def_232 () Bool (and .def_140 .def_231))
(define-fun .def_14 () Int (! |!{$(in_main#0)<x>}| :next |!{$(in_main#0)<x>}.next|))
(define-fun .def_121 () Bool (= .def_14 |!{$(in_main#0)<x>}.next|))
(define-fun .def_233 () Bool (and .def_121 .def_232))
(define-fun .def_16 () (Array Int Int) (! |!{$(in_main#0)<a1.1>}| :next |!{$(in_main#0)<a1.1>}.next|))
(define-fun .def_123 () Bool (= .def_16 |!{$(in_main#0)<a1.1>}.next|))
(define-fun .def_234 () Bool (and .def_123 .def_233))
(define-fun .def_18 () (Array Int Int) (! |!{$(in_main#0)<a7.2>}| :next |!{$(in_main#0)<a7.2>}.next|))
(define-fun .def_125 () Bool (= .def_18 |!{$(in_main#0)<a7.2>}.next|))
(define-fun .def_235 () Bool (and .def_125 .def_234))
(define-fun .def_20 () (Array Int Int) (! |!{$(in_main#0)<a2.3>}| :next |!{$(in_main#0)<a2.3>}.next|))
(define-fun .def_127 () Bool (= .def_20 |!{$(in_main#0)<a2.3>}.next|))
(define-fun .def_236 () Bool (and .def_127 .def_235))
(define-fun .def_22 () (Array Int Int) (! |!{$(in_main#0)<a3.4>}| :next |!{$(in_main#0)<a3.4>}.next|))
(define-fun .def_129 () Bool (= .def_22 |!{$(in_main#0)<a3.4>}.next|))
(define-fun .def_237 () Bool (and .def_129 .def_236))
(define-fun .def_24 () (Array Int Int) (! |!{$(in_main#0)<a4.5>}| :next |!{$(in_main#0)<a4.5>}.next|))
(define-fun .def_131 () Bool (= .def_24 |!{$(in_main#0)<a4.5>}.next|))
(define-fun .def_238 () Bool (and .def_131 .def_237))
(define-fun .def_26 () (Array Int Int) (! |!{$(in_main#0)<a5.6>}| :next |!{$(in_main#0)<a5.6>}.next|))
(define-fun .def_133 () Bool (= .def_26 |!{$(in_main#0)<a5.6>}.next|))
(define-fun .def_239 () Bool (and .def_133 .def_238))
(define-fun .def_28 () (Array Int Int) (! |!{$(in_main#0)<a6.7>}| :next |!{$(in_main#0)<a6.7>}.next|))
(define-fun .def_135 () Bool (= .def_28 |!{$(in_main#0)<a6.7>}.next|))
(define-fun .def_240 () Bool (and .def_135 .def_239))
(define-fun .def_30 () (Array Int Int) (! |!{$(in_main#0)<a8.8>}| :next |!{$(in_main#0)<a8.8>}.next|))
(define-fun .def_137 () Bool (= .def_30 |!{$(in_main#0)<a8.8>}.next|))
(define-fun .def_241 () Bool (and .def_137 .def_240))
(define-fun .def_359 () Bool (and .def_241 .def_337))
(define-fun .def_364 () Bool (and .def_359 .def_363))
(define-fun .def_101 () Bool (= !pc.next 41))
(define-fun .def_361 () Bool (and .def_101 .def_360))
(define-fun .def_340 () (Array Int Int) (store .def_18 .def_10 |!{$(in_main#0)<$(in___VERIFIER_nondet_int#2)<h#<__VERIFIER_nondet_int.return>>>}|))
(define-fun .def_350 () Bool (= |!{$(in_main#0)<a7.2>}.next| .def_340))
(define-fun .def_339 () (Array Int Int) (store .def_16 .def_10 |!{$(in_main#0)<$(in___VERIFIER_nondet_int#1)<h#<__VERIFIER_nondet_int.return>>>}|))
(define-fun .def_348 () Bool (= |!{$(in_main#0)<a1.1>}.next| .def_339))
(define-fun .def_342 () Int (* (- 1) |!{$(in_main#0)<a>}.next|))
(define-fun .def_343 () Int (+ .def_10 .def_342))
(define-fun .def_344 () Bool (= .def_343 (- 1)))
(define-fun .def_345 () Bool (and .def_115 .def_344))
(define-fun .def_12 () Int (! |!{$(in_main#0)<i>}| :next |!{$(in_main#0)<i>}.next|))
(define-fun .def_119 () Bool (= .def_12 |!{$(in_main#0)<i>}.next|))
(define-fun .def_346 () Bool (and .def_119 .def_345))
(define-fun .def_347 () Bool (and .def_121 .def_346))
(define-fun .def_349 () Bool (and .def_347 .def_348))
(define-fun .def_351 () Bool (and .def_349 .def_350))
(define-fun .def_352 () Bool (and .def_127 .def_351))
(define-fun .def_353 () Bool (and .def_129 .def_352))
(define-fun .def_354 () Bool (and .def_131 .def_353))
(define-fun .def_355 () Bool (and .def_133 .def_354))
(define-fun .def_356 () Bool (and .def_135 .def_355))
(define-fun .def_357 () Bool (and .def_137 .def_356))
(define-fun .def_338 () Bool (not .def_337))
(define-fun .def_358 () Bool (and .def_338 .def_357))
(define-fun .def_362 () Bool (and .def_358 .def_361))
(define-fun .def_365 () Bool (or .def_362 .def_364))
(define-fun .def_329 () Bool (= .def_55 70))
(define-fun .def_311 () Bool (= !pc.next 84))
(define-fun .def_333 () Bool (and .def_311 .def_329))
(define-fun .def_186 () Bool (<= .def_8 .def_12))
(define-fun .def_242 () Bool (and .def_186 .def_241))
(define-fun .def_334 () Bool (and .def_242 .def_333))
(define-fun .def_331 () Bool (and .def_329 .def_330))
(define-fun .def_318 () Int (select .def_16 .def_12))
(define-fun .def_319 () (Array Int Int) (store .def_20 .def_12 .def_318))
(define-fun .def_320 () Bool (= |!{$(in_main#0)<a2.3>}.next| .def_319))
(define-fun .def_191 () Int (* (- 1) |!{$(in_main#0)<i>}.next|))
(define-fun .def_192 () Int (+ .def_12 .def_191))
(define-fun .def_193 () Bool (= .def_192 (- 1)))
(define-fun .def_194 () Bool (and .def_140 .def_193))
(define-fun .def_195 () Bool (and .def_121 .def_194))
(define-fun .def_196 () Bool (and .def_123 .def_195))
(define-fun .def_197 () Bool (and .def_125 .def_196))
(define-fun .def_321 () Bool (and .def_197 .def_320))
(define-fun .def_322 () Bool (and .def_129 .def_321))
(define-fun .def_323 () Bool (and .def_131 .def_322))
(define-fun .def_324 () Bool (and .def_133 .def_323))
(define-fun .def_325 () Bool (and .def_135 .def_324))
(define-fun .def_326 () Bool (and .def_137 .def_325))
(define-fun .def_187 () Bool (not .def_186))
(define-fun .def_327 () Bool (and .def_187 .def_326))
(define-fun .def_332 () Bool (and .def_327 .def_331))
(define-fun .def_335 () Bool (or .def_332 .def_334))
(define-fun .def_310 () Bool (= .def_55 84))
(define-fun .def_293 () Bool (= !pc.next 98))
(define-fun .def_314 () Bool (and .def_293 .def_310))
(define-fun .def_315 () Bool (and .def_242 .def_314))
(define-fun .def_312 () Bool (and .def_310 .def_311))
(define-fun .def_300 () Int (select .def_20 .def_12))
(define-fun .def_301 () (Array Int Int) (store .def_22 .def_12 .def_300))
(define-fun .def_302 () Bool (= |!{$(in_main#0)<a3.4>}.next| .def_301))
(define-fun .def_198 () Bool (and .def_127 .def_197))
(define-fun .def_303 () Bool (and .def_198 .def_302))
(define-fun .def_304 () Bool (and .def_131 .def_303))
(define-fun .def_305 () Bool (and .def_133 .def_304))
(define-fun .def_306 () Bool (and .def_135 .def_305))
(define-fun .def_307 () Bool (and .def_137 .def_306))
(define-fun .def_308 () Bool (and .def_187 .def_307))
(define-fun .def_313 () Bool (and .def_308 .def_312))
(define-fun .def_316 () Bool (or .def_313 .def_315))
(define-fun .def_292 () Bool (= .def_55 98))
(define-fun .def_276 () Bool (= !pc.next 112))
(define-fun .def_296 () Bool (and .def_276 .def_292))
(define-fun .def_297 () Bool (and .def_242 .def_296))
(define-fun .def_294 () Bool (and .def_292 .def_293))
(define-fun .def_283 () Int (select .def_22 .def_12))
(define-fun .def_284 () (Array Int Int) (store .def_24 .def_12 .def_283))
(define-fun .def_285 () Bool (= |!{$(in_main#0)<a4.5>}.next| .def_284))
(define-fun .def_199 () Bool (and .def_129 .def_198))
(define-fun .def_286 () Bool (and .def_199 .def_285))
(define-fun .def_287 () Bool (and .def_133 .def_286))
(define-fun .def_288 () Bool (and .def_135 .def_287))
(define-fun .def_289 () Bool (and .def_137 .def_288))
(define-fun .def_290 () Bool (and .def_187 .def_289))
(define-fun .def_295 () Bool (and .def_290 .def_294))
(define-fun .def_298 () Bool (or .def_295 .def_297))
(define-fun .def_275 () Bool (= .def_55 112))
(define-fun .def_260 () Bool (= !pc.next 126))
(define-fun .def_279 () Bool (and .def_260 .def_275))
(define-fun .def_280 () Bool (and .def_242 .def_279))
(define-fun .def_277 () Bool (and .def_275 .def_276))
(define-fun .def_267 () Int (select .def_24 .def_12))
(define-fun .def_268 () (Array Int Int) (store .def_26 .def_12 .def_267))
(define-fun .def_269 () Bool (= |!{$(in_main#0)<a5.6>}.next| .def_268))
(define-fun .def_200 () Bool (and .def_131 .def_199))
(define-fun .def_270 () Bool (and .def_200 .def_269))
(define-fun .def_271 () Bool (and .def_135 .def_270))
(define-fun .def_272 () Bool (and .def_137 .def_271))
(define-fun .def_273 () Bool (and .def_187 .def_272))
(define-fun .def_278 () Bool (and .def_273 .def_277))
(define-fun .def_281 () Bool (or .def_278 .def_280))
(define-fun .def_259 () Bool (= .def_55 126))
(define-fun .def_245 () Bool (= !pc.next 140))
(define-fun .def_263 () Bool (and .def_245 .def_259))
(define-fun .def_264 () Bool (and .def_242 .def_263))
(define-fun .def_261 () Bool (and .def_259 .def_260))
(define-fun .def_252 () Int (select .def_26 .def_12))
(define-fun .def_253 () (Array Int Int) (store .def_28 .def_12 .def_252))
(define-fun .def_254 () Bool (= |!{$(in_main#0)<a6.7>}.next| .def_253))
(define-fun .def_201 () Bool (and .def_133 .def_200))
(define-fun .def_255 () Bool (and .def_201 .def_254))
(define-fun .def_256 () Bool (and .def_137 .def_255))
(define-fun .def_257 () Bool (and .def_187 .def_256))
(define-fun .def_262 () Bool (and .def_257 .def_261))
(define-fun .def_265 () Bool (or .def_262 .def_264))
(define-fun .def_244 () Bool (= .def_55 140))
(define-fun .def_219 () Bool (= !pc.next 154))
(define-fun .def_248 () Bool (and .def_219 .def_244))
(define-fun .def_249 () Bool (and .def_242 .def_248))
(define-fun .def_246 () Bool (and .def_244 .def_245))
(define-fun .def_226 () Int (select .def_28 .def_12))
(define-fun .def_227 () (Array Int Int) (store .def_30 .def_12 .def_226))
(define-fun .def_228 () Bool (= |!{$(in_main#0)<a8.8>}.next| .def_227))
(define-fun .def_202 () Bool (and .def_135 .def_201))
(define-fun .def_229 () Bool (and .def_202 .def_228))
(define-fun .def_230 () Bool (and .def_187 .def_229))
(define-fun .def_247 () Bool (and .def_230 .def_246))
(define-fun .def_250 () Bool (or .def_247 .def_249))
(define-fun .def_218 () Bool (= .def_55 154))
(define-fun .def_175 () Bool (= !pc.next 168))
(define-fun .def_222 () Bool (and .def_175 .def_218))
(define-fun .def_206 () Bool (= |!{$(in_main#0)<x>}.next| 0))
(define-fun .def_141 () Bool (and .def_119 .def_140))
(define-fun .def_207 () Bool (and .def_141 .def_206))
(define-fun .def_208 () Bool (and .def_123 .def_207))
(define-fun .def_209 () Bool (and .def_125 .def_208))
(define-fun .def_210 () Bool (and .def_127 .def_209))
(define-fun .def_211 () Bool (and .def_129 .def_210))
(define-fun .def_212 () Bool (and .def_131 .def_211))
(define-fun .def_213 () Bool (and .def_133 .def_212))
(define-fun .def_214 () Bool (and .def_135 .def_213))
(define-fun .def_215 () Bool (and .def_137 .def_214))
(define-fun .def_216 () Bool (and .def_186 .def_215))
(define-fun .def_223 () Bool (and .def_216 .def_222))
(define-fun .def_220 () Bool (and .def_218 .def_219))
(define-fun .def_188 () Int (select .def_18 .def_12))
(define-fun .def_189 () (Array Int Int) (store .def_30 .def_12 .def_188))
(define-fun .def_203 () Bool (= |!{$(in_main#0)<a8.8>}.next| .def_189))
(define-fun .def_204 () Bool (and .def_202 .def_203))
(define-fun .def_205 () Bool (and .def_187 .def_204))
(define-fun .def_221 () Bool (and .def_205 .def_220))
(define-fun .def_224 () Bool (or .def_221 .def_223))
(define-fun .def_179 () Bool (= !pc.next 0))
(define-fun .def_170 () Bool (= .def_55 168))
(define-fun .def_180 () Bool (and .def_170 .def_179))
(define-fun .def_104 () Bool (<= .def_8 .def_14))
(define-fun .def_157 () Bool (and .def_104 .def_115))
(define-fun .def_158 () Bool (and .def_117 .def_157))
(define-fun .def_159 () Bool (and .def_119 .def_158))
(define-fun .def_160 () Bool (and .def_121 .def_159))
(define-fun .def_161 () Bool (and .def_123 .def_160))
(define-fun .def_162 () Bool (and .def_125 .def_161))
(define-fun .def_163 () Bool (and .def_127 .def_162))
(define-fun .def_164 () Bool (and .def_129 .def_163))
(define-fun .def_165 () Bool (and .def_131 .def_164))
(define-fun .def_166 () Bool (and .def_133 .def_165))
(define-fun .def_167 () Bool (and .def_135 .def_166))
(define-fun .def_168 () Bool (and .def_137 .def_167))
(define-fun .def_181 () Bool (and .def_168 .def_180))
(define-fun .def_176 () Bool (and .def_170 .def_175))
(define-fun .def_143 () Int (* (- 1) |!{$(in_main#0)<x>}.next|))
(define-fun .def_144 () Int (+ .def_14 .def_143))
(define-fun .def_145 () Bool (= .def_144 (- 1)))
(define-fun .def_146 () Bool (and .def_141 .def_145))
(define-fun .def_147 () Bool (and .def_123 .def_146))
(define-fun .def_148 () Bool (and .def_125 .def_147))
(define-fun .def_149 () Bool (and .def_127 .def_148))
(define-fun .def_150 () Bool (and .def_129 .def_149))
(define-fun .def_151 () Bool (and .def_131 .def_150))
(define-fun .def_152 () Bool (and .def_133 .def_151))
(define-fun .def_153 () Bool (and .def_135 .def_152))
(define-fun .def_154 () Bool (and .def_137 .def_153))
(define-fun .def_107 () Int (select .def_30 .def_14))
(define-fun .def_106 () Int (select .def_16 .def_14))
(define-fun .def_108 () Bool (= .def_106 .def_107))
(define-fun .def_109 () Int (ite .def_108 1 0))
(define-fun .def_110 () Bool (= .def_109 0))
(define-fun .def_111 () Bool (not .def_110))
(define-fun .def_155 () Bool (and .def_111 .def_154))
(define-fun .def_105 () Bool (not .def_104))
(define-fun .def_156 () Bool (and .def_105 .def_155))
(define-fun .def_177 () Bool (and .def_156 .def_176))
(define-fun .def_172 () Bool (= !pc.next 188))
(define-fun .def_173 () Bool (and .def_170 .def_172))
(define-fun .def_116 () Bool (and .def_110 .def_115))
(define-fun .def_118 () Bool (and .def_116 .def_117))
(define-fun .def_120 () Bool (and .def_118 .def_119))
(define-fun .def_122 () Bool (and .def_120 .def_121))
(define-fun .def_124 () Bool (and .def_122 .def_123))
(define-fun .def_126 () Bool (and .def_124 .def_125))
(define-fun .def_128 () Bool (and .def_126 .def_127))
(define-fun .def_130 () Bool (and .def_128 .def_129))
(define-fun .def_132 () Bool (and .def_130 .def_131))
(define-fun .def_134 () Bool (and .def_132 .def_133))
(define-fun .def_136 () Bool (and .def_134 .def_135))
(define-fun .def_138 () Bool (and .def_136 .def_137))
(define-fun .def_139 () Bool (and .def_105 .def_138))
(define-fun .def_174 () Bool (and .def_139 .def_173))
(define-fun .def_178 () Bool (or .def_174 .def_177))
(define-fun .def_182 () Bool (or .def_178 .def_181))
(define-fun .def_102 () Bool (and .def_58 .def_101))
(define-fun .def_98 () Bool (= |!{$(in_main#0)<a8.8>}.next| |%{$(in_main#0)<a8.8>}#1|))
(define-fun .def_96 () Bool (= |!{$(in_main#0)<a6.7>}.next| |%{$(in_main#0)<a6.7>}#1|))
(define-fun .def_94 () Bool (= |!{$(in_main#0)<a5.6>}.next| |%{$(in_main#0)<a5.6>}#1|))
(define-fun .def_92 () Bool (= |!{$(in_main#0)<a4.5>}.next| |%{$(in_main#0)<a4.5>}#1|))
(define-fun .def_90 () Bool (= |!{$(in_main#0)<a3.4>}.next| |%{$(in_main#0)<a3.4>}#1|))
(define-fun .def_88 () Bool (= |!{$(in_main#0)<a2.3>}.next| |%{$(in_main#0)<a2.3>}#1|))
(define-fun .def_86 () Bool (= |!{$(in_main#0)<a7.2>}.next| |%{$(in_main#0)<a7.2>}#1|))
(define-fun .def_84 () Bool (= |!{$(in_main#0)<a1.1>}.next| |%{$(in_main#0)<a1.1>}#1|))
(define-fun .def_82 () Bool (= |!{$(in_main#0)<x>}.next| |%{$(in_main#0)<x>}#1|))
(define-fun .def_80 () Bool (= |!{$(in_main#0)<i>}.next| |%{$(in_main#0)<i>}#1|))
(define-fun .def_78 () Bool (= |!{$(in_main#0)<a>}.next| 0))
(define-fun .def_77 () Bool (= |!{$(in_main#0)<N>}.next| |!{$(in_main#0)<$(in___VERIFIER_nondet_int#0)<h#<__VERIFIER_nondet_int.return>>>}|))
(define-fun .def_79 () Bool (and .def_77 .def_78))
(define-fun .def_81 () Bool (and .def_79 .def_80))
(define-fun .def_83 () Bool (and .def_81 .def_82))
(define-fun .def_85 () Bool (and .def_83 .def_84))
(define-fun .def_87 () Bool (and .def_85 .def_86))
(define-fun .def_89 () Bool (and .def_87 .def_88))
(define-fun .def_91 () Bool (and .def_89 .def_90))
(define-fun .def_93 () Bool (and .def_91 .def_92))
(define-fun .def_95 () Bool (and .def_93 .def_94))
(define-fun .def_97 () Bool (and .def_95 .def_96))
(define-fun .def_99 () Bool (and .def_97 .def_98))
(define-fun .def_103 () Bool (and .def_99 .def_102))
(define-fun .def_183 () Bool (or .def_103 .def_182))
(define-fun .def_225 () Bool (or .def_183 .def_224))
(define-fun .def_251 () Bool (or .def_225 .def_250))
(define-fun .def_266 () Bool (or .def_251 .def_265))
(define-fun .def_282 () Bool (or .def_266 .def_281))
(define-fun .def_299 () Bool (or .def_282 .def_298))
(define-fun .def_317 () Bool (or .def_299 .def_316))
(define-fun .def_336 () Bool (or .def_317 .def_335))
(define-fun .def_366 () Bool (! (or .def_336 .def_365) :trans true))
(define-fun .def_184 () Bool (= .def_55 188))
(define-fun .def_367 () Bool (! (not .def_184) :invar-property 0 :invar-property-name ||))
(assert true)
